lp_solutions/grafo11384.30.sol
# Objective value = 41
c_e0e21 1
c_e0e33 1
c_e21e0 1
c_e21e33 1
c_e33e0 0
c_e33e21 0
c_e5e23 1
c_e5e32 0
c_e23e5 1
c_e23e32 1
c_e32e5 1
c_e32e23 1
c_e3e4 1
c_e3e6 1
c_e3e17 1
c_e4e3 0
c_e4e6 0
c_e4e17 1
c_e6e3 1
c_e6e4 1
c_e6e17 1
c_e17e3 1
c_e17e4 1
c_e17e6 0
c_e18e19 1
c_e18e20 1
c_e19e18 0
c_e19e20 1
c_e20e18 1
c_e20e19 1
c_e19e12 0
c_e19e14 0
c_e12e19 1
c_e12e14 1
c_e14e19 1
c_e14e12 1
c_e33e20 0
c_e33e16 1
c_e20e33 1
c_e20e16 0
c_e16e33 1
c_e16e20 1
c_e7e8 1
c_e7e11 1
c_e8e7 1
c_e8e11 1
c_e11e7 0
c_e11e8 1
c_e24e26 1
c_e24e27 0
c_e26e24 1
c_e26e27 1
c_e27e24 1
c_e27e26 1
x_e0e21 1
x_e21e33 0
x_e0e33 0
x_e21e1 1
x_e0e1 1
x_e21e2 1
x_e0e2 1
x_e21e5 1
x_e0e5 1
x_e21e23 1
x_e0e23 1
x_e21e32 1
x_e0e32 1
x_e21e3 1
x_e0e3 1
x_e21e4 1
x_e0e4 1
x_e21e6 1
x_e0e6 1
x_e21e17 1
x_e0e17 1
x_e21e18 0
x_e0e18 0
x_e21e19 0
x_e0e19 0
x_e21e20 0
x_e0e20 0
x_e21e12 0
x_e0e12 0
x_e21e14 0
x_e0e14 0
x_e21e16 0
x_e0e16 0
x_e21e9 0
x_e0e9 0
x_e21e15 0
x_e0e15 0
x_e21e7 0
x_e0e7 0
x_e21e8 0
x_e0e8 0
x_e21e11 0
x_e0e11 0
x_e21e10 0
x_e0e10 0
x_e21e13 0
x_e0e13 0
x_e21e22 0
x_e0e22 0
x_e21e25 0
x_e0e25 0
x_e21e24 0
x_e0e24 0
x_e21e26 0
x_e0e26 0
x_e21e27 0
x_e0e27 0
x_e21e28 0
x_e0e28 0
x_e21e29 0
x_e0e29 0
x_e21e30 0
x_e0e30 0
x_e21e31 0
x_e0e31 0
x_e33e1 1
x_e33e2 1
x_e33e5 1
x_e33e23 1
x_e33e32 1
x_e33e3 1
x_e33e4 1
x_e33e6 1
x_e33e17 1
x_e33e18 0
x_e33e19 0
x_e33e20 0
x_e33e12 0
x_e33e14 0
x_e33e16 1
x_e33e9 0
x_e33e15 0
x_e33e7 0
x_e33e8 0
x_e33e11 0
x_e33e10 0
x_e33e13 0
x_e33e22 0
x_e33e25 0
x_e33e24 0
x_e33e26 0
x_e33e27 0
x_e33e28 0
x_e33e29 0
x_e33e30 0
x_e33e31 0
x_e1e2 0
x_e1e5 0
x_e1e23 0
x_e1e32 0
x_e1e3 0
x_e1e4 0
x_e1e6 0
x_e1e17 0
x_e1e18 0
x_e1e19 0
x_e1e20 0
x_e1e12 0
x_e1e14 0
x_e1e16 0
x_e1e9 0
x_e1e15 0
x_e1e7 0
x_e1e8 0
x_e1e11 0
x_e1e10 0
x_e1e13 0
x_e1e22 0
x_e1e25 0
x_e1e24 0
x_e1e26 0
x_e1e27 0
x_e1e28 0
x_e1e29 0
x_e1e30 0
x_e1e31 0
x_e2e5 0
x_e2e23 0
x_e2e32 0
x_e2e3 0
x_e2e4 0
x_e2e6 0
x_e2e17 0
x_e2e18 0
x_e2e19 0
x_e2e20 0
x_e2e12 0
x_e2e14 0
x_e2e16 0
x_e2e9 0
x_e2e15 0
x_e2e7 0
x_e2e8 0
x_e2e11 0
x_e2e10 0
x_e2e13 0
x_e2e22 0
x_e2e25 0
x_e2e24 0
x_e2e26 0
x_e2e27 0
x_e2e28 0
x_e2e29 0
x_e2e30 0
x_e2e31 0
x_e5e23 1
x_e5e32 1
x_e5e3 0
x_e5e4 0
x_e5e6 0
x_e5e17 0
x_e5e18 0
x_e5e19 0
x_e5e20 0
x_e5e12 0
x_e5e14 0
x_e5e16 0
x_e5e9 0
x_e5e15 0
x_e5e7 0
x_e5e8 0
x_e5e11 0
x_e5e10 0
x_e5e13 0
x_e5e22 0
x_e5e25 0
x_e5e24 0
x_e5e26 0
x_e5e27 0
x_e5e28 0
x_e5e29 0
x_e5e30 0
x_e5e31 0
x_e23e32 1
x_e23e3 0
x_e23e4 0
x_e23e6 0
x_e23e17 0
x_e23e18 0
x_e23e19 0
x_e23e20 0
x_e23e12 0
x_e23e14 0
x_e23e16 0
x_e23e9 0
x_e23e15 0
x_e23e7 0
x_e23e8 0
x_e23e11 0
x_e23e10 0
x_e23e13 0
x_e23e22 0
x_e23e25 0
x_e23e24 0
x_e23e26 0
x_e23e27 0
x_e23e28 0
x_e23e29 0
x_e23e30 0
x_e23e31 0
x_e32e3 0
x_e32e4 0
x_e32e6 0
x_e32e17 0
x_e32e18 0
x_e32e19 0
x_e32e20 0
x_e32e12 0
x_e32e14 0
x_e32e16 0
x_e32e9 0
x_e32e15 0
x_e32e7 0
x_e32e8 0
x_e32e11 0
x_e32e10 0
x_e32e13 0
x_e32e22 0
x_e32e25 0
x_e32e24 0
x_e32e26 0
x_e32e27 0
x_e32e28 0
x_e32e29 0
x_e32e30 0
x_e32e31 0
x_e3e4 0
x_e3e6 1
x_e3e17 0
x_e3e18 0
x_e3e19 0
x_e3e20 0
x_e3e12 0
x_e3e14 0
x_e3e16 0
x_e3e9 0
x_e3e15 0
x_e3e7 0
x_e3e8 0
x_e3e11 0
x_e3e10 0
x_e3e13 0
x_e3e22 0
x_e3e25 0
x_e3e24 0
x_e3e26 0
x_e3e27 0
x_e3e28 0
x_e3e29 0
x_e3e30 0
x_e3e31 0
x_e4e6 1
x_e4e17 1
x_e4e18 0
x_e4e19 0
x_e4e20 0
x_e4e12 0
x_e4e14 0
x_e4e16 0
x_e4e9 0
x_e4e15 0
x_e4e7 0
x_e4e8 0
x_e4e11 0
x_e4e10 0
x_e4e13 0
x_e4e22 0
x_e4e25 0
x_e4e24 0
x_e4e26 0
x_e4e27 0
x_e4e28 0
x_e4e29 0
x_e4e30 0
x_e4e31 0
x_e6e17 0
x_e6e18 0
x_e6e19 0
x_e6e20 0
x_e6e12 0
x_e6e14 0
x_e6e16 0
x_e6e9 0
x_e6e15 0
x_e6e7 0
x_e6e8 0
x_e6e11 0
x_e6e10 0
x_e6e13 0
x_e6e22 0
x_e6e25 0
x_e6e24 0
x_e6e26 0
x_e6e27 0
x_e6e28 0
x_e6e29 0
x_e6e30 0
x_e6e31 0
x_e17e18 0
x_e17e19 0
x_e17e20 0
x_e17e12 0
x_e17e14 0
x_e17e16 0
x_e17e9 0
x_e17e15 0
x_e17e7 0
x_e17e8 0
x_e17e11 0
x_e17e10 0
x_e17e13 0
x_e17e22 0
x_e17e25 0
x_e17e24 0
x_e17e26 0
x_e17e27 0
x_e17e28 0
x_e17e29 0
x_e17e30 0
x_e17e31 0
x_e18e19 0
x_e18e20 0
x_e18e12 0
x_e18e14 0
x_e18e16 1
x_e18e9 0
x_e18e15 0
x_e18e7 0
x_e18e8 0
x_e18e11 0
x_e18e10 0
x_e18e13 0
x_e18e22 0
x_e18e25 0
x_e18e24 0
x_e18e26 0
x_e18e27 0
x_e18e28 0
x_e18e29 0
x_e18e30 0
x_e18e31 0
x_e19e20 1
x_e19e12 0
x_e19e14 0
x_e19e16 1
x_e19e9 0
x_e19e15 0
x_e19e7 0
x_e19e8 0
x_e19e11 0
x_e19e10 0
x_e19e13 0
x_e19e22 0
x_e19e25 0
x_e19e24 0
x_e19e26 0
x_e19e27 0
x_e19e28 0
x_e19e29 0
x_e19e30 0
x_e19e31 0
x_e20e12 0
x_e20e14 0
x_e20e16 1
x_e20e9 0
x_e20e15 0
x_e20e7 0
x_e20e8 0
x_e20e11 0
x_e20e10 0
x_e20e13 0
x_e20e22 0
x_e20e25 0
x_e20e24 0
x_e20e26 0
x_e20e27 0
x_e20e28 0
x_e20e29 0
x_e20e30 0
x_e20e31 0
x_e12e14 1
x_e12e16 1
x_e12e9 0
x_e12e15 0
x_e12e7 0
x_e12e8 0
x_e12e11 0
x_e12e10 0
x_e12e13 0
x_e12e22 0
x_e12e25 0
x_e12e24 0
x_e12e26 0
x_e12e27 0
x_e12e28 0
x_e12e29 0
x_e12e30 0
x_e12e31 0
x_e14e16 1
x_e14e9 0
x_e14e15 0
x_e14e7 0
x_e14e8 0
x_e14e11 0
x_e14e10 0
x_e14e13 0
x_e14e22 0
x_e14e25 0
x_e14e24 0
x_e14e26 0
x_e14e27 0
x_e14e28 0
x_e14e29 0
x_e14e30 0
x_e14e31 0
x_e16e9 0
x_e16e15 0
x_e16e7 0
x_e16e8 0
x_e16e11 0
x_e16e10 0
x_e16e13 0
x_e16e22 0
x_e16e25 0
x_e16e24 0
x_e16e26 0
x_e16e27 0
x_e16e28 0
x_e16e29 0
x_e16e30 0
x_e16e31 0
x_e9e15 0
x_e9e7 0
x_e9e8 0
x_e9e11 0
x_e9e10 0
x_e9e13 0
x_e9e22 0
x_e9e25 0
x_e9e24 0
x_e9e26 0
x_e9e27 0
x_e9e28 0
x_e9e29 0
x_e9e30 0
x_e9e31 0
x_e15e7 0
x_e15e8 0
x_e15e11 0
x_e15e10 0
x_e15e13 0
x_e15e22 0
x_e15e25 0
x_e15e24 0
x_e15e26 0
x_e15e27 0
x_e15e28 0
x_e15e29 0
x_e15e30 0
x_e15e31 0
x_e7e8 0
x_e7e11 0
x_e7e10 0
x_e7e13 0
x_e7e22 0
x_e7e25 0
x_e7e24 0
x_e7e26 0
x_e7e27 0
x_e7e28 0
x_e7e29 0
x_e7e30 0
x_e7e31 0
x_e8e11 0
x_e8e10 0
x_e8e13 0
x_e8e22 0
x_e8e25 0
x_e8e24 0
x_e8e26 0
x_e8e27 0
x_e8e28 0
x_e8e29 0
x_e8e30 0
x_e8e31 0
x_e11e10 0
x_e11e13 0
x_e11e22 0
x_e11e25 0
x_e11e24 0
x_e11e26 0
x_e11e27 0
x_e11e28 0
x_e11e29 0
x_e11e30 0
x_e11e31 0
x_e10e13 0
x_e10e22 0
x_e10e25 0
x_e10e24 0
x_e10e26 0
x_e10e27 0
x_e10e28 0
x_e10e29 0
x_e10e30 0
x_e10e31 0
x_e13e22 0
x_e13e25 0
x_e13e24 0
x_e13e26 0
x_e13e27 0
x_e13e28 0
x_e13e29 0
x_e13e30 0
x_e13e31 0
x_e22e25 0
x_e22e24 0
x_e22e26 0
x_e22e27 0
x_e22e28 0
x_e22e29 0
x_e22e30 0
x_e22e31 0
x_e25e24 0
x_e25e26 0
x_e25e27 0
x_e25e28 0
x_e25e29 0
x_e25e30 0
x_e25e31 0
x_e24e26 1
x_e24e27 1
x_e24e28 0
x_e24e29 0
x_e24e30 0
x_e24e31 0
x_e26e27 1
x_e26e28 0
x_e26e29 0
x_e26e30 0
x_e26e31 0
x_e27e28 0
x_e27e29 0
x_e27e30 0
x_e27e31 0
x_e28e29 0
x_e28e30 0
x_e28e31 0
x_e29e30 0
x_e29e31 0
x_e30e31 1
y_n0n1 1
y_n1n2 0
y_n0n2 1
y_n1n3 0
y_n0n3 1
y_n1n4 0
y_n0n4 1
y_n1n5 0
y_n0n5 0
y_n1n6 0
y_n0n6 0
y_n1n7 0
y_n0n7 1
y_n1n8 0
y_n0n8 1
y_n1n9 0
y_n0n9 1
y_n1n10 0
y_n0n10 0
y_n1n11 0
y_n0n11 0
y_n1n12 0
y_n0n12 1
y_n1n13 0
y_n0n13 1
y_n1n14 0
y_n0n14 1
y_n1n15 0
y_n0n15 1
y_n1n16 0
y_n0n16 1
y_n1n17 0
y_n0n17 1
y_n1n18 0
y_n0n18 1
y_n1n19 0
y_n0n19 1
y_n1n20 0
y_n0n20 0
y_n1n21 0
y_n0n21 0
y_n1n22 0
y_n0n22 0
y_n1n23 0
y_n0n23 0
y_n1n24 0
y_n0n24 0
y_n1n25 0
y_n0n25 0
y_n1n26 0
y_n0n26 0
y_n1n27 0
y_n0n27 0
y_n1n28 0
y_n0n28 0
y_n1n29 0
y_n0n29 0
y_n2n3 0
y_n2n4 0
y_n2n5 0
y_n2n6 0
y_n2n7 0
y_n2n8 0
y_n2n9 0
y_n2n10 0
y_n2n11 0
y_n2n12 0
y_n2n13 0
y_n2n14 0
y_n2n15 0
y_n2n16 0
y_n2n17 0
y_n2n18 0
y_n2n19 0
y_n2n20 0
y_n2n21 0
y_n2n22 0
y_n2n23 0
y_n2n24 0
y_n2n25 0
y_n2n26 0
y_n2n27 0
y_n2n28 0
y_n2n29 0
y_n3n4 0
y_n3n5 0
y_n3n6 0
y_n3n7 0
y_n3n8 0
y_n3n9 0
y_n3n10 0
y_n3n11 0
y_n3n12 0
y_n3n13 0
y_n3n14 0
y_n3n15 0
y_n3n16 0
y_n3n17 0
y_n3n18 0
y_n3n19 0
y_n3n20 0
y_n3n21 0
y_n3n22 0
y_n3n23 0
y_n3n24 0
y_n3n25 0
y_n3n26 0
y_n3n27 0
y_n3n28 0
y_n3n29 0
y_n4n5 0
y_n4n6 0
y_n4n7 1
y_n4n8 1
y_n4n9 1
y_n4n10 0
y_n4n11 0
y_n4n12 1
y_n4n13 1
y_n4n14 1
y_n4n15 1
y_n4n16 1
y_n4n17 1
y_n4n18 1
y_n4n19 1
y_n4n20 0
y_n4n21 0
y_n4n22 0
y_n4n23 0
y_n4n24 0
y_n4n25 0
y_n4n26 0
y_n4n27 0
y_n4n28 0
y_n4n29 0
y_n5n6 1
y_n5n7 1
y_n5n8 1
y_n5n9 1
y_n5n10 1
y_n5n11 0
y_n5n12 1
y_n5n13 1
y_n5n14 1
y_n5n15 1
y_n5n16 1
y_n5n17 1
y_n5n18 1
y_n5n19 1
y_n5n20 1
y_n5n21 1
y_n5n22 0
y_n5n23 0
y_n5n24 1
y_n5n25 0
y_n5n26 0
y_n5n27 0
y_n5n28 0
y_n5n29 0
y_n6n7 1
y_n6n8 1
y_n6n9 1
y_n6n10 1
y_n6n11 0
y_n6n12 1
y_n6n13 1
y_n6n14 1
y_n6n15 1
y_n6n16 1
y_n6n17 1
y_n6n18 1
y_n6n19 1
y_n6n20 1
y_n6n21 1
y_n6n22 0
y_n6n23 0
y_n6n24 1
y_n6n25 0
y_n6n26 0
y_n6n27 0
y_n6n28 0
y_n6n29 0
y_n7n8 0
y_n7n9 0
y_n7n10 0
y_n7n11 0
y_n7n12 0
y_n7n13 0
y_n7n14 0
y_n7n15 0
y_n7n16 0
y_n7n17 0
y_n7n18 0
y_n7n19 0
y_n7n20 0
y_n7n21 0
y_n7n22 0
y_n7n23 0
y_n7n24 0
y_n7n25 0
y_n7n26 0
y_n7n27 0
y_n7n28 0
y_n7n29 0
y_n8n9 0
y_n8n10 0
y_n8n11 0
y_n8n12 0
y_n8n13 0
y_n8n14 0
y_n8n15 0
y_n8n16 0
y_n8n17 0
y_n8n18 0
y_n8n19 0
y_n8n20 0
y_n8n21 0
y_n8n22 0
y_n8n23 0
y_n8n24 0
y_n8n25 0
y_n8n26 0
y_n8n27 0
y_n8n28 0
y_n8n29 0
y_n9n10 0
y_n9n11 0
y_n9n12 0
y_n9n13 0
y_n9n14 0
y_n9n15 0
y_n9n16 0
y_n9n17 0
y_n9n18 0
y_n9n19 0
y_n9n20 0
y_n9n21 0
y_n9n22 0
y_n9n23 0
y_n9n24 0
y_n9n25 0
y_n9n26 0
y_n9n27 0
y_n9n28 0
y_n9n29 0
y_n10n11 0
y_n10n12 1
y_n10n13 1
y_n10n14 1
y_n10n15 1
y_n10n16 1
y_n10n17 1
y_n10n18 1
y_n10n19 1
y_n10n20 1
y_n10n21 1
y_n10n22 0
y_n10n23 0
y_n10n24 1
y_n10n25 0
y_n10n26 0
y_n10n27 0
y_n10n28 0
y_n10n29 0
y_n11n12 1
y_n11n13 1
y_n11n14 1
y_n11n15 1
y_n11n16 1
y_n11n17 1
y_n11n18 1
y_n11n19 1
y_n11n20 1
y_n11n21 1
y_n11n22 1
y_n11n23 1
y_n11n24 1
y_n11n25 1
y_n11n26 1
y_n11n27 1
y_n11n28 1
y_n11n29 0
y_n12n13 0
y_n12n14 1
y_n12n15 1
y_n12n16 0
y_n12n17 1
y_n12n18 0
y_n12n19 0
y_n12n20 0
y_n12n21 0
y_n12n22 0
y_n12n23 0
y_n12n24 0
y_n12n25 0
y_n12n26 0
y_n12n27 0
y_n12n28 0
y_n12n29 0
y_n13n14 1
y_n13n15 1
y_n13n16 1
y_n13n17 1
y_n13n18 0
y_n13n19 0
y_n13n20 0
y_n13n21 0
y_n13n22 0
y_n13n23 0
y_n13n24 0
y_n13n25 0
y_n13n26 0
y_n13n27 0
y_n13n28 0
y_n13n29 0
y_n14n15 0
y_n14n16 0
y_n14n17 0
y_n14n18 0
y_n14n19 0
y_n14n20 0
y_n14n21 0
y_n14n22 0
y_n14n23 0
y_n14n24 0
y_n14n25 0
y_n14n26 0
y_n14n27 0
y_n14n28 0
y_n14n29 0
y_n15n16 0
y_n15n17 1
y_n15n18 0
y_n15n19 0
y_n15n20 0
y_n15n21 0
y_n15n22 0
y_n15n23 0
y_n15n24 0
y_n15n25 0
y_n15n26 0
y_n15n27 0
y_n15n28 0
y_n15n29 0
y_n16n17 1
y_n16n18 0
y_n16n19 0
y_n16n20 0
y_n16n21 0
y_n16n22 0
y_n16n23 0
y_n16n24 0
y_n16n25 0
y_n16n26 0
y_n16n27 0
y_n16n28 0
y_n16n29 0
y_n17n18 0
y_n17n19 0
y_n17n20 0
y_n17n21 0
y_n17n22 0
y_n17n23 0
y_n17n24 0
y_n17n25 0
y_n17n26 0
y_n17n27 0
y_n17n28 0
y_n17n29 0
y_n18n19 0
y_n18n20 0
y_n18n21 0
y_n18n22 0
y_n18n23 0
y_n18n24 0
y_n18n25 0
y_n18n26 0
y_n18n27 0
y_n18n28 0
y_n18n29 0
y_n19n20 0
y_n19n21 0
y_n19n22 0
y_n19n23 0
y_n19n24 0
y_n19n25 0
y_n19n26 0
y_n19n27 0
y_n19n28 0
y_n19n29 0
y_n20n21 0
y_n20n22 0
y_n20n23 0
y_n20n24 0
y_n20n25 0
y_n20n26 0
y_n20n27 0
y_n20n28 0
y_n20n29 0
y_n21n22 0
y_n21n23 0
y_n21n24 0
y_n21n25 0
y_n21n26 0
y_n21n27 0
y_n21n28 0
y_n21n29 0
y_n22n23 0
y_n22n24 1
y_n22n25 0
y_n22n26 0
y_n22n27 0
y_n22n28 0
y_n22n29 0
y_n23n24 1
y_n23n25 0
y_n23n26 0
y_n23n27 0
y_n23n28 0
y_n23n29 0
y_n24n25 0
y_n24n26 0
y_n24n27 0
y_n24n28 0
y_n24n29 0
y_n25n26 1
y_n25n27 1
y_n25n28 1
y_n25n29 0
y_n26n27 0
y_n26n28 0
y_n26n29 0
y_n27n28 1
y_n27n29 0
y_n28n29 0
pos_e0 23
pos_e21 24
pos_e33 21
pos_e1 33
pos_e2 32
pos_e5 29
pos_e23 30
pos_e32 31
pos_e3 27
pos_e4 25
pos_e6 28
pos_e17 26
pos_e18 20
pos_e19 18
pos_e20 19
pos_e12 16
pos_e14 17
pos_e16 22
pos_e9 15
pos_e15 14
pos_e7 13
pos_e8 12
pos_e11 11
pos_e10 10
pos_e13 9
pos_e22 8
pos_e25 7
pos_e24 4
pos_e26 5
pos_e27 6
pos_e28 3
pos_e29 2
pos_e30 0
pos_e31 1
z_e0e21 1
z_e0e33 0
z_e21e0 0
z_e21e33 0
z_e33e0 0
z_e33e21 0
z_e5e23 1
z_e5e32 0
z_e23e5 0
z_e23e32 1
z_e32e5 0
z_e32e23 0
z_e3e4 0
z_e3e6 1
z_e3e17 0
z_e4e3 0
z_e4e6 0
z_e4e17 1
z_e6e3 0
z_e6e4 0
z_e6e17 0
z_e17e3 1
z_e17e4 0
z_e17e6 0
z_e18e19 0
z_e18e20 0
z_e19e18 0
z_e19e20 1
z_e20e18 1
z_e20e19 0
z_e19e12 0
z_e19e14 0
z_e12e19 0
z_e12e14 1
z_e14e19 0
z_e14e12 0
z_e33e20 0
z_e33e16 1
z_e20e33 0
z_e20e16 0
z_e16e33 0
z_e16e20 0
z_e7e8 0
z_e7e11 0
z_e8e7 1
z_e8e11 0
z_e11e7 0
z_e11e8 1
z_e24e26 1
z_e24e27 0
z_e26e24 0
z_e26e27 1
z_e27e24 0
z_e27e26 0
