lp_solutions/grafo11384.30.log

Gurobi 11.0.1 (mac64[x86], gurobi_cl) logging started Sat Aug  3 00:27:52 2024

Set parameter Username
Set parameter TimeLimit to value 100
Set parameter LogFile to value "./lp_solutions/grafo11384.30.log"
Using license file /Users/sara/gurobi.lic
Academic license - for non-commercial use only - expires 2025-05-12

Gurobi Optimizer version 11.0.1 build v11.0.1rc0 (mac64[x86] - Darwin 21.6.0 21G651)
Copyright (c) 2024, Gurobi Optimization, LLC

Read LP format model from file ./lp_problems/grafo11384.30.lp
Reading time = 0.04 seconds
: 11493 rows, 753 columns, 34659 nonzeros

CPU model: Intel(R) Core(TM) i5-1038NG7 CPU @ 2.00GHz
Thread count: 4 physical cores, 8 logical processors, using up to 8 threads

Optimize a model with 11493 rows, 753 columns and 34659 nonzeros
Model fingerprint: 0x6c7de919
Variable types: 22 continuous, 731 integer (731 binary)
Coefficient statistics:
  Matrix range     [1e+00, 5e+01]
  Objective range  [1e+00, 1e+00]
  Bounds range     [1e+00, 1e+00]
  RHS range        [1e+00, 5e+01]
Found heuristic solution: objective -0.0000000
Presolve removed 205 rows and 51 columns
Presolve time: 0.14s
Presolved: 11288 rows, 702 columns, 34254 nonzeros
Variable types: 0 continuous, 702 integer (680 binary)

Root relaxation: objective 1.093750e+01, 660 iterations, 0.14 seconds (0.05 work units)

    Nodes    |    Current Node    |     Objective Bounds      |     Work
 Expl Unexpl |  Obj  Depth IntInf | Incumbent    BestBd   Gap | It/Node Time

     0     0   10.93750    0   55   -0.00000   10.93750      -     -    0s
H    0     0                       5.0000000   10.93750   119%     -    0s
H    0     0                       7.0000000   10.93750  56.2%     -    0s
     0     0   10.93750    0   55    7.00000   10.93750  56.2%     -    0s
     0     0   10.93750    0   52    7.00000   10.93750  56.2%     -    1s
     0     0    9.00000    0   77    7.00000    9.00000  28.6%     -    1s
     0     0    9.00000    0   77    7.00000    9.00000  28.6%     -    1s
     0     0    9.00000    0   74    7.00000    9.00000  28.6%     -    2s
H    0     0                       8.0000000    9.00000  12.5%     -    2s
     0     0    9.00000    0   60    8.00000    9.00000  12.5%     -    2s
     0     0    9.00000    0   84    8.00000    9.00000  12.5%     -    2s
     0     0    9.00000    0   84    8.00000    9.00000  12.5%     -    2s
     0     0    9.00000    0   37    8.00000    9.00000  12.5%     -    2s
     0     0    9.00000    0   41    8.00000    9.00000  12.5%     -    2s
     0     0    9.00000    0   38    8.00000    9.00000  12.5%     -    2s
     0     0    9.00000    0   36    8.00000    9.00000  12.5%     -    2s
     0     0    9.00000    0   33    8.00000    9.00000  12.5%     -    3s
     0     0    9.00000    0   34    8.00000    9.00000  12.5%     -    3s
     0     0    9.00000    0   43    8.00000    9.00000  12.5%     -    3s
     0     0    9.00000    0   34    8.00000    9.00000  12.5%     -    3s
     0     0    9.00000    0   34    8.00000    9.00000  12.5%     -    3s
     0     1    9.00000    0   34    8.00000    9.00000  12.5%     -    4s

Cutting planes:
  Gomory: 1
  Cover: 2
  MIR: 1
  Zero half: 1

Explored 1 nodes (5790 simplex iterations) in 4.03 seconds (1.03 work units)
Thread count was 8 (of 8 available processors)

Solution count 5: 8 7 5 ... -0

Optimal solution found (tolerance 1.00e-04)
Best objective 8.000000000000e+00, best bound 8.000000000000e+00, gap 0.0000%

Wrote result file './lp_solutions/grafo11384.30.sol'

